NAME: random-99-23818
TYPE: TSP
COMMENT: size=99 seed=23818
DIMENSION: 200
EDGE_WEIGHT_TYPE: EUC_2D
NODE_COORD_SECTION
+0 126 278
-0 126 278
+1 957 391
-1 352 861
+2 201 448
-2 222 933
+3 679 875
-3 735 902
+4 191 921
-4 716 592
+5 733 263
-5 846 259
+6 442 344
-6 52 379
+7 12 130
-7 92 30
+8 419 296
-8 23 195
+9 826 530
-9 834 31
+10 705 602
-10 310 727
+11 231 453
-11 36 501
+12 427 108
-12 186 588
+13 183 283
-13 692 465
+14 643 468
-14 755 680
+15 687 436
-15 923 726
+16 365 799
-16 853 577
+17 773 62
-17 289 55
+18 877 679
-18 371 738
+19 970 224
-19 11 674
+20 818 597
-20 603 959
+21 593 392
-21 745 253
+22 83 656
-22 346 749
+23 170 901
-23 23 585
+24 30 845
-24 426 21
+25 159 578
-25 998 495
+26 399 939
-26 969 557
+27 829 288
-27 324 124
+28 187 45
-28 776 179
+29 321 33
-29 590 434
+30 631 246
-30 955 595
+31 30 642
-31 748 582
+32 632 655
-32 34 660
+33 816 420
-33 123 180
+34 916 505
-34 583 85
+35 35 273
-35 522 10
+36 148 28
-36 601 684
+37 795 63
-37 452 687
+38 63 163
-38 231 825
+39 756 63
-39 808 899
+40 373 399
-40 50 733
+41 959 920
-41 734 238
+42 539 328
-42 640 474
+43 769 323
-43 668 73
+44 431 16
-44 123 578
+45 302 22
-45 747 972
+46 606 408
-46 386 674
+47 435 119
-47 864 474
+48 130 86
-48 956 989
+49 983 708
-49 861 962
+50 322 235
-50 507 324
+51 131 840
-51 38 950
+52 681 679
-52 162 380
+53 290 273
-53 28 483
+54 7 670
-54 596 512
+55 389 936
-55 265 624
+56 582 787
-56 338 243
+57 264 914
-57 215 974
+58 7 107
-58 868 494
+59 875 189
-59 434 116
+60 475 159
-60 45 744
+61 775 697
-61 956 618
+62 330 798
-62 334 944
+63 851 565
-63 24 479
+64 69 735
-64 822 565
+65 147 464
-65 965 178
+66 463 649
-66 1 38
+67 156 590
-67 640 954
+68 205 844
-68 910 391
+69 623 382
-69 786 860
+70 875 973
-70 676 500
+71 908 630
-71 114 316
+72 46 618
-72 299 390
+73 444 219
-73 385 786
+74 739 697
-74 171 905
+75 153 581
-75 278 99
+76 632 736
-76 978 106
+77 892 905
-77 976 237
+78 755 580
-78 7 867
+79 697 1
-79 531 516
+80 552 352
-80 947 116
+81 679 880
-81 347 617
+82 25 117
-82 47 868
+83 466 651
-83 746 261
+84 928 272
-84 988 237
+85 640 558
-85 910 237
+86 477 890
-86 116 844
+87 904 24
-87 335 708
+88 284 505
-88 660 370
+89 906 247
-89 728 826
+90 284 104
-90 549 816
+91 213 939
-91 596 107
+92 338 507
-92 4 69
+93 597 255
-93 528 276
+94 335 587
-94 848 88
+95 362 111
-95 667 675
+96 281 611
-96 158 813
+97 252 802
-97 91 796
+98 536 271
-98 684 209
+99 16 843
-99 122 952
PRECEDENCE_SECTION
+0 -0
+1 -1
+2 -2
+3 -3
+4 -4
+5 -5
+6 -6
+7 -7
+8 -8
+9 -9
+10 -10
+11 -11
+12 -12
+13 -13
+14 -14
+15 -15
+16 -16
+17 -17
+18 -18
+19 -19
+20 -20
+21 -21
+22 -22
+23 -23
+24 -24
+25 -25
+26 -26
+27 -27
+28 -28
+29 -29
+30 -30
+31 -31
+32 -32
+33 -33
+34 -34
+35 -35
+36 -36
+37 -37
+38 -38
+39 -39
+40 -40
+41 -41
+42 -42
+43 -43
+44 -44
+45 -45
+46 -46
+47 -47
+48 -48
+49 -49
+50 -50
+51 -51
+52 -52
+53 -53
+54 -54
+55 -55
+56 -56
+57 -57
+58 -58
+59 -59
+60 -60
+61 -61
+62 -62
+63 -63
+64 -64
+65 -65
+66 -66
+67 -67
+68 -68
+69 -69
+70 -70
+71 -71
+72 -72
+73 -73
+74 -74
+75 -75
+76 -76
+77 -77
+78 -78
+79 -79
+80 -80
+81 -81
+82 -82
+83 -83
+84 -84
+85 -85
+86 -86
+87 -87
+88 -88
+89 -89
+90 -90
+91 -91
+92 -92
+93 -93
+94 -94
+95 -95
+96 -96
+97 -97
+98 -98
+99 -99
EOF
